Instance: Data/Instances_txt/inst_100_10_4.txt
SetUpTime: 43.98165798187256

Gurobi 10.0.1 (mac64[x86]) logging started Di 18 Jul 09:01:51 2023

Set parameter LogFile to value "Output/MILP_inst_100_10_4_2023-07-18_09-01-06.txt"
Set parameter TimeLimit to value 75

Gurobi 10.0.1 (mac64[x86]) logging started Di 18 Jul 09:01:51 2023

Set parameter LogFile to value "Output/MILP_inst_100_10_4_2023-07-18_09-01-06.txt"
Gurobi Optimizer version 10.0.1 build v10.0.1rc0 (mac64[x86])

CPU model: Intel(R) Core(TM) i5-1038NG7 CPU @ 2.00GHz
Thread count: 4 physical cores, 8 logical processors, using up to 8 threads

Academic license - for non-commercial use only - registered to joel.steiner@unifr.ch
Optimize a model with 201 rows, 50236 columns and 277066 nonzeros
Model fingerprint: 0x507175a9
Variable types: 0 continuous, 50236 integer (0 binary)
Coefficient statistics:
  Matrix range     [1e+00, 1e+00]
  Objective range  [6e+00, 1e+04]
  Bounds range     [1e+00, 1e+00]
  RHS range        [1e+00, 1e+00]
Presolve removed 0 rows and 10 columns
Presolve time: 0.55s
Presolved: 201 rows, 50226 columns, 276823 nonzeros
Variable types: 0 continuous, 50226 integer (50226 binary)
Found heuristic solution: objective 172910.00000

Root simplex log...

Iteration    Objective       Primal Inf.    Dual Inf.      Time
    5557    5.1265346e+04   5.138360e+02   0.000000e+00      5s
    7187    5.1557302e+04   0.000000e+00   0.000000e+00      7s

Root relaxation: objective 5.155730e+04, 7187 iterations, 5.73 seconds (7.06 work units)

    Nodes    |    Current Node    |     Objective Bounds      |     Work
 Expl Unexpl |  Obj  Depth IntInf | Incumbent    BestBd   Gap | It/Node Time

     0     0 51557.3018    0  158 172910.000 51557.3018  70.2%     -    6s
H    0     0                    130224.00000 51557.3018  60.4%     -    8s
H    0     0                    123389.99996 51557.3018  58.2%     -    9s
     0     0 51592.9316    0  138 123390.000 51592.9316  58.2%     -   10s
H    0     0                    54165.000000 51592.9316  4.75%     -   20s
H    0     0                    53911.000000 51764.9583  3.98%     -   20s
     0     0 51764.9583    0  118 53911.0000 51764.9583  3.98%     -   20s
     0     0 51773.4707    0  168 53911.0000 51773.4707  3.96%     -   21s
     0     0 51773.4707    0  168 53911.0000 51773.4707  3.96%     -   21s
     0     0 51873.1330    0  178 53911.0000 51873.1330  3.78%     -   24s
H    0     0                    52403.000000 51873.1330  1.01%     -   31s
     0     0 51893.7691    0  189 52403.0000 51893.7691  0.97%     -   32s
     0     0 51893.8272    0  193 52403.0000 51893.8272  0.97%     -   32s
     0     0 51894.5006    0  200 52403.0000 51894.5006  0.97%     -   32s
     0     0 51897.2269    0  197 52403.0000 51897.2269  0.97%     -   32s
     0     0 51897.5379    0  183 52403.0000 51897.5379  0.96%     -   32s
     0     0 51897.6315    0  190 52403.0000 51897.6315  0.96%     -   32s
     0     0 51954.9718    0  179 52403.0000 51954.9718  0.85%     -   34s
     0     0 51954.9718    0  159 52403.0000 51954.9718  0.85%     -   36s
H    0     0                    52387.000000 51954.9718  0.82%     -   36s
     0     0 51954.9718    0  170 52387.0000 51954.9718  0.82%     -   37s
H    0     0                    52328.000000 51954.9718  0.71%     -   37s
     0     0 51954.9718    0  186 52328.0000 51954.9718  0.71%     -   38s
     0     0 51954.9718    0  181 52328.0000 51954.9718  0.71%     -   39s
     0     0 51954.9718    0  185 52328.0000 51954.9718  0.71%     -   39s
     0     0 51956.3047    0  189 52328.0000 51956.3047  0.71%     -   39s
     0     0 51956.3557    0  185 52328.0000 51956.3557  0.71%     -   39s
     0     0 51973.4241    0  180 52328.0000 51973.4241  0.68%     -   40s
     0     0 51974.8136    0  177 52328.0000 51974.8136  0.67%     -   40s
     0     0 51975.6888    0  175 52328.0000 51975.6888  0.67%     -   40s
     0     0 51975.6888    0  179 52328.0000 51975.6888  0.67%     -   40s
     0     0 51976.8914    0  215 52328.0000 51976.8914  0.67%     -   41s
     0     0 51976.8914    0  211 52328.0000 51976.8914  0.67%     -   41s
     0     0 51976.8914    0  161 52328.0000 51976.8914  0.67%     -   45s
     0     0 51976.8914    0  172 52328.0000 51976.8914  0.67%     -   45s
     0     0 51976.8914    0  161 52328.0000 51976.8914  0.67%     -   46s
     0     0 51976.8914    0  212 52328.0000 51976.8914  0.67%     -   47s
     0     0 51976.8914    0  203 52328.0000 51976.8914  0.67%     -   47s
     0     0 51976.9093    0  211 52328.0000 51976.9093  0.67%     -   47s
     0     0 51976.9569    0  211 52328.0000 51976.9569  0.67%     -   47s
     0     0 51978.9913    0  179 52328.0000 51978.9913  0.67%     -   47s
     0     0 51979.1661    0  206 52328.0000 51979.1661  0.67%     -   48s
     0     0 51980.4711    0  223 52328.0000 51980.4711  0.66%     -   48s
     0     0 51980.4711    0  219 52328.0000 51980.4711  0.66%     -   48s
     0     2 51980.4711    0  215 52328.0000 51980.4711  0.66%     -   53s
    15    20 52022.6883    4  210 52328.0000 51999.9925  0.63%   371   55s
   125   133 52122.7217   17  160 52328.0000 51999.9925  0.63%   277   60s
   329   267 52064.8597    8  192 52328.0000 52021.4821  0.59%   207   65s
   587   438 52173.9086   20  151 52328.0000 52021.4821  0.59%   195   70s
   989   605 52307.3148   27  116 52328.0000 52035.4412  0.56%   162   75s

Cutting planes:
  Clique: 44
  MIR: 1
  Zero half: 20
  RLT: 98

Explored 992 nodes (184142 simplex iterations) in 75.02 seconds (83.55 work units)
Thread count was 8 (of 8 available processors)

Solution count 8: 52328 52387 52403 ... 172910

Time limit reached
Best objective 5.232800000000e+04, best bound 5.203600000000e+04, gap 0.5580%

User-callback calls 18270, time in user-callback 0.04 sec

=========================

OUTPUT STATISTICS
Time since start: 120.23365092277527
Objective value: 52328.0
Gap: 0.005580186515823269
Number of variables: 50236
